Optimal - objective value 90.00000000
      0 x_0                    1                       7
      1 x_1                    0                       0
      2 x_2                    1                      13
      3 x_3                    0                      25
      4 x_4                    1                      28
      5 x_5                    0                      17
      6 x_6                    0                      19
      7 x_7                    0                      21
      8 x_8                    1                      26
Optimal - objective value 90.00000000
      0 x_0                    1                       7
      1 x_1                    0                       0
      2 x_2                    1                      13
      3 x_3                    0                      25
      4 x_4                    1                      28
      5 x_5                    0                      17
      6 x_6                    0                      19
      7 x_7                    0                      21
      8 x_8                    1                      26
